<number of tasks>
45

<cycle time>
110

<task times>
1 9
2 9
3 10
4 10
5 17
6 17
7 13
8 13
9 20
10 20
11 10
12 11
13 6
14 22
15 11
16 19
17 12
18 3
19 7
20 4
21 55
22 14
23 27
24 29
25 26
26 6
27 5
28 24
29 4
30 5
31 7
32 4
33 15
34 3
35 7
36 9
37 4
38 7
39 5
40 4
41 21
42 12
43 6
44 5
45 5

<precedence relations>
1,3
1,7
2,4
2,8
3,5
4,6
5,9
6,10
7,9
7,14
8,10
8,14
9,41
10,41
11,13
12,13
12,37
13,14
13,15
14,17
14,25
14,29
14,30
14,31
14,32
15,16
15,18
15,23
15,24
16,19
17,26
17,27
18,19
19,20
19,33
20,21
21,22
22,28
23,33
24,33
25,26
26,38
27,28
27,33
28,38
29,41
30,41
31,41
32,41
33,34
33,35
33,36
34,38
35,40
36,38
37,43
38,40
39,41
40,41
41,42
42,44
42,45

<setup times forward>
1,3:3
1,4:3
1,6:3
1,10:2
1,16:3
1,19:3
1,20:2
1,21:1
1,22:1
1,23:2
1,24:3
1,37:2
1,39:2
1,43:2
2,3:3
2,4:3
2,5:3
2,9:2
2,16:3
2,19:3
2,20:2
2,21:1
2,22:1
2,23:2
2,24:3
2,37:2
2,39:2
2,43:2
3,2:3
3,7:3
3,8:3
3,10:5
3,11:3
3,12:3
3,13:3
3,14:3
3,15:3
3,17:5
3,18:3
3,20:5
3,21:2
3,22:2
3,23:5
3,25:2
3,26:5
3,27:5
3,28:5
3,29:2
3,30:5
3,31:5
3,32:2
3,33:2
3,34:5
3,35:5
3,36:5
3,37:5
3,38:5
3,39:5
3,40:5
3,43:5
4,1:3
4,7:3
4,8:3
4,9:5
4,11:3
4,12:3
4,13:3
4,14:3
4,15:3
4,17:5
4,18:3
4,20:5
4,21:2
4,22:2
4,23:5
4,25:2
4,26:5
4,27:5
4,28:5
4,29:2
4,30:5
4,31:5
4,32:2
4,33:2
4,34:5
4,35:5
4,36:5
4,37:5
4,38:5
4,39:5
4,40:5
4,43:5
5,2:3
5,7:3
5,8:3
5,9:5
5,10:5
5,11:3
5,12:3
5,13:3
5,14:3
5,15:3
5,17:5
5,18:3
5,20:5
5,21:2
5,22:2
5,23:5
5,25:2
5,26:5
5,27:5
5,28:5
5,29:2
5,30:5
5,31:5
5,32:2
5,33:2
5,34:5
5,35:5
5,36:5
5,37:5
5,38:5
5,39:5
5,40:5
5,43:5
6,1:3
6,7:3
6,8:3
6,9:5
6,10:5
6,11:3
6,12:3
6,13:3
6,14:3
6,15:3
6,17:5
6,18:3
6,20:5
6,21:2
6,22:2
6,23:5
6,25:2
6,26:5
6,27:5
6,28:5
6,29:2
6,30:5
6,31:5
6,32:2
6,33:2
6,34:5
6,35:5
6,36:5
6,37:5
6,38:5
6,39:5
6,40:5
6,43:5
7,3:3
7,4:3
7,5:3
7,6:3
7,9:2
7,10:2
7,16:3
7,19:3
7,20:2
7,21:1
7,22:1
7,23:2
7,24:3
7,37:2
7,39:2
7,43:2
8,3:3
8,4:3
8,5:3
8,6:3
8,9:2
8,10:2
8,16:3
8,19:3
8,20:2
8,21:1
8,22:1
8,23:2
8,24:3
8,37:2
8,39:2
8,43:2
9,2:2
9,4:5
9,6:5
9,8:2
9,11:2
9,12:2
9,13:2
9,14:2
9,15:2
9,16:5
9,18:2
9,19:5
9,21:3
9,22:3
9,24:5
9,25:3
9,29:3
9,32:3
9,33:3
10,1:2
10,3:5
10,5:5
10,7:2
10,11:2
10,12:2
10,13:2
10,14:2
10,15:2
10,16:5
10,18:2
10,19:5
10,21:3
10,22:3
10,24:5
10,25:3
10,29:3
10,32:3
10,33:3
11,3:3
11,4:3
11,5:3
11,6:3
11,9:2
11,10:2
11,37:2
11,39:2
11,43:2
12,3:3
12,4:3
12,5:3
12,6:3
12,9:2
12,10:2
12,37:2
12,39:2
13,3:3
13,4:3
13,5:3
13,6:3
13,9:2
13,10:2
13,37:2
13,39:2
13,43:2
14,3:3
14,4:3
14,5:3
14,6:3
14,9:2
14,10:2
14,16:3
14,17:2
14,19:3
14,20:2
14,21:1
14,22:1
14,23:2
14,24:3
14,25:1
14,29:1
14,30:2
14,31:2
14,32:1
14,37:2
14,39:2
14,43:2
15,3:3
15,4:3
15,5:3
15,6:3
15,9:2
15,10:2
15,16:3
15,17:2
15,23:2
15,24:3
15,25:1
15,26:2
15,27:2
15,29:1
15,30:2
15,31:2
15,32:1
15,37:2
15,39:2
15,43:2
16,1:3
16,2:3
16,7:3
16,8:3
16,9:5
16,10:5
16,14:3
16,17:5
16,18:3
16,23:5
16,25:2
16,26:5
16,27:5
16,29:2
16,30:5
16,31:5
16,32:2
16,37:5
16,39:5
16,43:5
17,3:5
17,4:5
17,5:5
17,6:5
17,15:2
17,16:5
17,18:2
17,19:5
17,21:3
17,22:3
17,24:5
17,25:3
17,29:3
17,32:3
18,3:3
18,4:3
18,5:3
18,6:3
18,9:2
18,10:2
18,16:3
18,17:2
18,19:3
18,23:2
18,24:3
18,25:1
18,26:2
18,27:2
18,29:1
18,30:2
18,31:2
18,32:1
18,37:2
18,39:2
18,43:2
19,1:3
19,2:3
19,7:3
19,8:3
19,9:5
19,10:5
19,14:3
19,17:5
19,20:5
19,23:5
19,25:2
19,26:5
19,27:5
19,29:2
19,30:5
19,31:5
19,32:2
19,33:2
19,37:5
19,39:5
19,43:5
20,1:2
20,2:2
20,3:5
20,4:5
20,5:5
20,6:5
20,7:2
20,8:2
20,14:2
20,21:3
20,24:5
20,25:3
20,29:3
20,32:3
20,33:3
21,1:1
21,2:1
21,3:2
21,4:2
21,5:2
21,6:2
21,7:1
21,8:1
21,9:3
21,10:3
21,14:1
21,17:3
21,23:3
21,24:2
21,26:3
21,27:3
21,30:3
21,31:3
21,34:3
21,35:3
21,36:3
21,37:3
21,39:3
21,43:3
22,1:1
22,2:1
22,3:2
22,4:2
22,5:2
22,6:2
22,7:1
22,8:1
22,9:3
22,10:3
22,14:1
22,17:3
22,23:3
22,24:2
22,26:3
22,27:3
22,28:3
22,30:3
22,31:3
22,34:3
22,35:3
22,36:3
22,37:3
22,39:3
22,43:3
23,1:2
23,2:2
23,3:5
23,4:5
23,5:5
23,6:5
23,7:2
23,8:2
23,14:2
23,16:5
23,18:2
23,19:5
23,21:3
23,22:3
23,24:5
23,25:3
23,29:3
23,32:3
23,33:3
24,1:3
24,2:3
24,7:3
24,8:3
24,9:5
24,10:5
24,14:3
24,17:5
24,18:3
24,20:5
24,21:2
24,22:2
24,23:5
24,25:2
24,26:5
24,27:5
24,28:5
24,29:2
24,30:5
24,31:5
24,32:2
24,33:2
24,37:5
24,39:5
24,43:5
25,3:2
25,4:2
25,5:2
25,6:2
25,9:3
25,10:3
25,15:1
25,16:2
25,17:3
25,18:1
25,19:2
25,20:3
25,23:3
25,24:2
25,26:3
25,27:3
25,28:3
25,30:3
25,31:3
25,34:3
25,35:3
25,36:3
25,37:3
25,39:3
25,43:3
26,3:5
26,4:5
26,5:5
26,6:5
26,15:2
26,16:5
26,18:2
26,19:5
26,21:3
26,22:3
26,24:5
26,29:3
26,32:3
26,33:3
27,3:5
27,4:5
27,5:5
27,6:5
27,15:2
27,16:5
27,18:2
27,19:5
27,21:3
27,22:3
27,24:5
27,25:3
27,29:3
27,32:3
27,33:3
28,3:5
28,4:5
28,5:5
28,6:5
28,24:5
28,25:3
28,29:3
28,32:3
28,33:3
29,3:2
29,4:2
29,5:2
29,6:2
29,9:3
29,10:3
29,15:1
29,16:2
29,17:3
29,18:1
29,19:2
29,20:3
29,23:3
29,24:2
29,26:3
29,27:3
29,28:3
29,30:3
29,31:3
29,34:3
29,35:3
29,36:3
29,37:3
29,38:3
29,39:3
29,40:3
29,41:3
29,43:3
30,3:5
30,4:5
30,5:5
30,6:5
30,15:2
30,16:5
30,18:2
30,19:5
30,21:3
30,22:3
30,24:5
30,25:3
30,29:3
30,32:3
30,33:3
31,3:5
31,4:5
31,5:5
31,6:5
31,15:2
31,16:5
31,18:2
31,19:5
31,21:3
31,22:3
31,24:5
31,25:3
31,29:3
31,32:3
31,33:3
32,3:2
32,4:2
32,5:2
32,6:2
32,9:3
32,10:3
32,15:1
32,16:2
32,17:3
32,18:1
32,19:2
32,20:3
32,23:3
32,24:2
32,26:3
32,27:3
32,28:3
32,30:3
32,31:3
32,34:3
32,35:3
32,36:3
32,37:3
32,38:3
32,39:3
32,40:3
32,41:3
32,43:3
33,3:2
33,4:2
33,5:2
33,6:2
33,9:3
33,10:3
33,20:3
33,26:3
33,28:3
33,30:3
33,31:3
33,34:3
33,35:3
33,36:3
33,37:3
33,39:3
33,43:3
34,3:5
34,4:5
34,5:5
34,6:5
34,21:3
34,22:3
34,25:3
34,29:3
34,32:3
35,3:5
35,4:5
35,5:5
35,6:5
35,21:3
35,22:3
35,25:3
35,29:3
35,32:3
36,3:5
36,4:5
36,5:5
36,6:5
36,21:3
36,22:3
36,25:3
36,29:3
36,32:3
37,1:2
37,2:2
37,3:5
37,4:5
37,5:5
37,6:5
37,7:2
37,8:2
37,11:2
37,13:2
37,14:2
37,15:2
37,16:5
37,18:2
37,19:5
37,21:3
37,22:3
37,24:5
37,25:3
37,29:3
37,32:3
37,33:3
38,3:5
38,4:5
38,5:5
38,6:5
38,29:3
38,32:3
39,1:2
39,2:2
39,3:5
39,4:5
39,5:5
39,6:5
39,7:2
39,8:2
39,11:2
39,12:2
39,13:2
39,14:2
39,15:2
39,16:5
39,18:2
39,19:5
39,21:3
39,22:3
39,24:5
39,25:3
39,29:3
39,32:3
39,33:3
40,3:5
40,4:5
40,5:5
40,6:5
40,29:3
40,32:3
43,1:2
43,2:2
43,3:5
43,4:5
43,5:5
43,6:5
43,7:2
43,8:2
43,11:2
43,13:2
43,14:2
43,15:2
43,16:5
43,18:2
43,19:5
43,21:3
43,22:3
43,24:5
43,25:3
43,29:3
43,32:3
43,33:3

<setup times backward>
1,10:2
1,20:2
1,23:2
1,37:2
1,39:2
1,43:2
2,9:2
2,20:2
2,23:2
2,37:2
2,39:2
2,43:2
3,1:3
3,2:3
3,7:3
3,8:3
3,10:5
3,11:3
3,12:3
3,13:3
3,14:3
3,15:3
3,17:5
3,18:3
3,20:5
3,21:2
3,22:2
3,23:5
3,25:2
3,26:5
3,27:5
3,28:5
3,29:2
3,30:5
3,31:5
3,32:2
3,33:2
3,34:5
3,35:5
3,36:5
3,37:5
3,38:5
3,39:5
3,40:5
3,43:5
4,1:3
4,2:3
4,7:3
4,8:3
4,9:5
4,11:3
4,12:3
4,13:3
4,14:3
4,15:3
4,17:5
4,18:3
4,20:5
4,21:2
4,22:2
4,23:5
4,25:2
4,26:5
4,27:5
4,28:5
4,29:2
4,30:5
4,31:5
4,32:2
4,33:2
4,34:5
4,35:5
4,36:5
4,37:5
4,38:5
4,39:5
4,40:5
4,43:5
5,1:3
5,2:3
5,7:3
5,8:3
5,10:5
5,11:3
5,12:3
5,13:3
5,14:3
5,15:3
5,17:5
5,18:3
5,20:5
5,21:2
5,22:2
5,23:5
5,25:2
5,26:5
5,27:5
5,28:5
5,29:2
5,30:5
5,31:5
5,32:2
5,33:2
5,34:5
5,35:5
5,36:5
5,37:5
5,38:5
5,39:5
5,40:5
5,43:5
6,1:3
6,2:3
6,7:3
6,8:3
6,9:5
6,11:3
6,12:3
6,13:3
6,14:3
6,15:3
6,17:5
6,18:3
6,20:5
6,21:2
6,22:2
6,23:5
6,25:2
6,26:5
6,27:5
6,28:5
6,29:2
6,30:5
6,31:5
6,32:2
6,33:2
6,34:5
6,35:5
6,36:5
6,37:5
6,38:5
6,39:5
6,40:5
6,43:5
7,10:2
7,20:2
7,23:2
7,37:2
7,39:2
7,43:2
8,9:2
8,20:2
8,23:2
8,37:2
8,39:2
8,43:2
11,9:2
11,10:2
11,37:2
11,39:2
11,43:2
12,9:2
12,10:2
12,39:2
13,9:2
13,10:2
13,37:2
13,39:2
13,43:2
14,9:2
14,10:2
14,20:2
14,23:2
14,37:2
14,39:2
14,43:2
15,9:2
15,10:2
15,17:2
15,26:2
15,27:2
15,30:2
15,31:2
15,37:2
15,39:2
15,43:2
16,1:3
16,2:3
16,7:3
16,8:3
16,9:5
16,10:5
16,11:3
16,12:3
16,13:3
16,14:3
16,15:3
16,17:5
16,18:3
16,23:5
16,25:2
16,26:5
16,27:5
16,29:2
16,30:5
16,31:5
16,32:2
16,37:5
16,39:5
16,43:5
18,9:2
18,10:2
18,17:2
18,23:2
18,26:2
18,27:2
18,30:2
18,31:2
18,37:2
18,39:2
18,43:2
19,1:3
19,2:3
19,7:3
19,8:3
19,9:5
19,10:5
19,11:3
19,12:3
19,13:3
19,14:3
19,15:3
19,17:5
19,18:3
19,23:5
19,25:2
19,26:5
19,27:5
19,29:2
19,30:5
19,31:5
19,32:2
19,37:5
19,39:5
19,43:5
21,1:1
21,2:1
21,7:1
21,8:1
21,9:3
21,10:3
21,11:1
21,12:1
21,13:1
21,14:1
21,15:1
21,17:3
21,18:1
21,20:3
21,23:3
21,26:3
21,27:3
21,30:3
21,31:3
21,34:3
21,35:3
21,36:3
21,37:3
21,39:3
21,43:3
22,1:1
22,2:1
22,7:1
22,8:1
22,9:3
22,10:3
22,11:1
22,12:1
22,13:1
22,14:1
22,15:1
22,17:3
22,18:1
22,20:3
22,23:3
22,26:3
22,27:3
22,30:3
22,31:3
22,34:3
22,35:3
22,36:3
22,37:3
22,39:3
22,43:3
24,1:3
24,2:3
24,7:3
24,8:3
24,9:5
24,10:5
24,11:3
24,12:3
24,13:3
24,14:3
24,15:3
24,17:5
24,18:3
24,20:5
24,21:2
24,22:2
24,23:5
24,25:2
24,26:5
24,27:5
24,28:5
24,29:2
24,30:5
24,31:5
24,32:2
24,37:5
24,39:5
24,43:5
25,1:1
25,2:1
25,7:1
25,8:1
25,9:3
25,10:3
25,11:1
25,12:1
25,13:1
25,14:1
25,15:1
25,17:3
25,18:1
25,20:3
25,23:3
25,27:3
25,28:3
25,30:3
25,31:3
25,34:3
25,35:3
25,36:3
25,37:3
25,39:3
25,43:3
29,1:1
29,2:1
29,7:1
29,8:1
29,9:3
29,10:3
29,11:1
29,12:1
29,13:1
29,14:1
29,15:1
29,17:3
29,18:1
29,20:3
29,23:3
29,26:3
29,27:3
29,28:3
29,30:3
29,31:3
29,34:3
29,35:3
29,36:3
29,37:3
29,38:3
29,39:3
29,40:3
29,43:3
32,1:1
32,2:1
32,7:1
32,8:1
32,9:3
32,10:3
32,11:1
32,12:1
32,13:1
32,14:1
32,15:1
32,17:3
32,18:1
32,20:3
32,23:3
32,26:3
32,27:3
32,28:3
32,30:3
32,31:3
32,34:3
32,35:3
32,36:3
32,37:3
32,38:3
32,39:3
32,40:3
32,43:3
33,1:1
33,2:1
33,7:1
33,8:1
33,9:3
33,10:3
33,11:1
33,12:1
33,13:1
33,14:1
33,15:1
33,17:3
33,18:1
33,20:3
33,23:3
33,26:3
33,27:3
33,28:3
33,30:3
33,31:3
33,37:3
33,39:3
33,43:3

<end>

<optimal SALBP-1 value>
6


<rand seed>
467321153

